\ Model Routes
\ LP format - for model browsing. Use MPS format to capture full model detail.
Maximize
  1533.228206194839 R{0,0} + 2591.679024458567 R{0,1}
   + 2591.679024458567 R{0,2} - 249.2301939667805 R{0,3}
   - 31.82321499385571 R{0,4} + 638.834524368017 R{0,5}
   + 2566.424369821148 R{0,6} + 2508.068195833934 R{0,7}
   + 2318.695251319325 R{0,8} + 1581.620678472923 R{0,9}
   + 1818.601516697291 R{0,10} + 1661.906110363923 R{0,11}
   + 1788.721676090564 R{0,12} + 1663.578586697626 R{0,13}
   + 1792.25649086671 R{0,14} + 991.4024753042079 R{0,15}
   + 1467.17836845679 R{0,16} + 1405.72290788251 R{0,17}
   + 1280.010797798449 R{0,18} + 2144.21244153343 R{0,19}
   + 921.2522369749354 R{0,20} + 1724.571947591702 R{0,21}
   + 1687.514682142774 R{0,22} + 1679.383853174947 R{0,23}
   + 1086.95788797031 R{0,24} + 1914.0791920563 R{0,25}
   + 2265.037097222366 R{0,26} + 1709.135445891606 R{0,27}
   + 2366.972725145871 R{0,28} + 1712.098178828192 R{0,29}
   + 794.9869471353354 R{0,30} + 2275.323336711746 R{0,31}
   - 256.140831891889 R{1,0} + 1.421024720507319 R{1,1}
   + 699.1132125037707 R{1,2} + 997.9736148902871 R{1,3}
   + 1261.40259154674 R{1,4} + 1297.884210234015 R{1,5}
   + 730.4823435774765 R{1,6} + 1468.577913901367 R{1,7}
   + 735.3088822131577 R{1,8} + 748.3311292626968 R{1,9}
   + 360.1830278006505 R{1,10} + 466.1512155265586 R{1,11}
   + 1132.885597934515 R{1,12} + 466.1512155265586 R{1,13}
   + 657.3270848222546 R{1,14} + 17.17637251389783 R{1,15}
   + 290.3833328672779 R{1,16} + 713.1662463377869 R{1,17}
   + 1253.843024187529 R{1,18} + 466.1512155265586 R{1,19}
   + 807.3028708758563 R{1,20} + 433.8427827078973 R{1,21}
   + 1168.915469794422 R{1,22} - 278.4443928850388 R{2,0}
   + 355.5628375470975 R{2,1} + 1452.269829909344 R{2,2}
   + 1452.269829909344 R{2,3} + 301.0219435375403 R{2,4}
   + 54.61238926148735 R{2,5} + 916.1789585751681 R{2,6}
   + 586.7402478967641 R{2,7} + 561.8540953448069 R{2,8}
   + 709.7316892843273 R{2,9} + 54.61238926148735 R{2,10}
   + 189.6577292844616 R{2,11} + 1133.627820337866 R{2,12}
   + 357.6249453696196 R{2,13} + 623.48714431193 R{2,14}
   + 357.6249453696196 R{2,15} + 777.2597166924712 R{2,16}
   + 709.7316892843273 R{2,17} + 359.6260015013082 R{2,18}
   + 395.796393489625 R{2,19} - 260.2482995389823 R{3,0}
   + 361.081176854884 R{3,1} + 761.0503024230281 R{3,2}
   + 890.4511578329837 R{3,3} + 790.4159686429699 R{3,4}
   + 459.4523841074897 R{3,5} + 757.1096755013735 R{3,6}
   + 614.240973206144 R{3,7} + 922.188199500376 R{3,8}
   + 379.2558752879693 R{3,9} + 330.6170050054958 R{3,10}
   + 1187.059487708475 R{3,11} + 254.9499907431918 R{3,12}
   + 371.4421750839227 R{3,13} + 960.1399972341194 R{3,14}
   + 399.6465694632528 R{3,15} + 732.3453926245465 R{3,16}
   + 426.6297224963732 R{3,17} - 242.5208875955131 R{4,0}
   + 1055.572474837385 R{4,1} + 1576.196574514046 R{4,2}
   + 581.2874748472361 R{4,3} + 1658.980305308444 R{4,4}
   + 1155.669435508495 R{4,5} + 577.246833610594 R{4,6}
   + 657.8723811056568 R{4,7} + 1259.253384509641 R{4,8}
   + 1145.122195639339 R{4,9} + 1658.980305308444 R{4,10}
   + 1211.271720827706 R{4,11} + 1096.594137300857 R{4,12}
   + 1701.063147833098 R{4,13} + 1450.621161615199 R{4,14}
   + 1329.303251891259 R{4,15} + 897.7195088979906 R{4,16}
   + 1614.759663885629 R{4,17} + 780.016554214544 R{4,18}
   + 1450.621161615199 R{4,19} + 985.6599719858332 R{4,20}
   + 1600.37873589961 R{4,21} + 777.3974538402317 R{4,22}
   + 582.2957386074806 R{4,23} + 906.3032055625101 R{4,24}
   - 231.9775664337766 R{5,0} + 326.98460213128 R{5,1}
   + 1480.650475450034 R{5,2} + 1480.650475450034 R{5,3}
   + 1379.626937424315 R{5,4} + 1810.646835773208 R{5,5}
   + 1620.550351709236 R{5,6} + 1349.593900348281 R{5,7}
   + 1421.444721658533 R{5,8} + 1022.758506020496 R{5,9}
   + 1187.149545522857 R{5,10} + 1676.732108875625 R{5,11}
   + 949.6413247968308 R{5,12} + 1234.221807361728 R{5,13}
   + 896.5599460565982 R{5,14} + 1593.830697342656 R{5,15}
   + 822.7101961144326 R{5,16} + 1596.51472176302 R{5,17}
   + 1851.990091868207 R{5,18} + 1359.732503244792 R{5,19}
   + 677.2147558288975 R{5,20} + 1031.189769086617 R{5,21}
   + 1573.478089870365 R{5,22} + 587.3063902643248 R{5,23}
   + 792.7916061985162 R{5,24} + 1363.798104857868 R{5,25}
   + 1443.63525784594 R{5,26} - 231.1436095783099 R{6,0}
   + 1195.286596672249 R{6,1} + 2138.911397941406 R{6,2}
   + 2560.066428814385 R{6,3} + 1721.613249704078 R{6,4}
   + 2638.394523332448 R{6,5} + 1563.371658624939 R{6,6}
   + 2137.964953260501 R{6,7} + 1658.447331290664 R{6,8}
   + 2103.224498081637 R{6,9} + 2062.098073160671 R{6,10}
   + 1555.004367248656 R{6,11} + 2062.098073160671 R{6,12}
   + 1658.447331290664 R{6,13} + 1722.947351133314 R{6,14}
   + 1472.298834774193 R{6,15} + 1229.572056815533 R{6,16}
   + 1549.606191858077 R{6,17} + 2181.216337526881 R{6,18}
   + 2247.488945438636 R{6,19} + 2137.463740898982 R{6,20}
   + 1291.328506004584 R{6,21} + 1438.935330631598 R{6,22}
   + 1868.268284943777 R{6,23} + 1897.907750588018 R{6,24}
   + 1465.137211829127 R{6,25} + 2137.463740898982 R{6,26}
   + 1972.083352874224 R{6,27} + 1992.749109139732 R{6,28}
Subject To
 R00: R{0,0} <= 1
 R01: R{0,1} <= 1
 R02: R{0,2} <= 1
 R03: R{0,3} <= 1
 R04: R{0,4} <= 1
 R05: R{0,5} <= 1
 R06: R{0,6} <= 1
 R07: R{0,7} <= 1
 R08: R{0,8} <= 1
 R09: R{0,9} <= 1
 R010: R{0,10} <= 1
 R011: R{0,11} <= 1
 R012: R{0,12} <= 1
 R013: R{0,13} <= 1
 R014: R{0,14} <= 1
 R015: R{0,15} <= 1
 R016: R{0,16} <= 1
 R017: R{0,17} <= 1
 R018: R{0,18} <= 1
 R019: R{0,19} <= 1
 R020: R{0,20} <= 1
 R021: R{0,21} <= 1
 R022: R{0,22} <= 1
 R023: R{0,23} <= 1
 R024: R{0,24} <= 1
 R025: R{0,25} <= 1
 R026: R{0,26} <= 1
 R027: R{0,27} <= 1
 R028: R{0,28} <= 1
 R029: R{0,29} <= 1
 R030: R{0,30} <= 1
 R031: R{0,31} <= 1
 R032: R{1,0} <= 1
 R033: R{1,1} <= 1
 R034: R{1,2} <= 1
 R035: R{1,3} <= 1
 R036: R{1,4} <= 1
 R037: R{1,5} <= 1
 R038: R{1,6} <= 1
 R039: R{1,7} <= 1
 R040: R{1,8} <= 1
 R041: R{1,9} <= 1
 R042: R{1,10} <= 1
 R043: R{1,11} <= 1
 R044: R{1,12} <= 1
 R045: R{1,13} <= 1
 R046: R{1,14} <= 1
 R047: R{1,15} <= 1
 R048: R{1,16} <= 1
 R049: R{1,17} <= 1
 R050: R{1,18} <= 1
 R051: R{1,19} <= 1
 R052: R{1,20} <= 1
 R053: R{1,21} <= 1
 R054: R{1,22} <= 1
 R055: R{2,0} <= 1
 R056: R{2,1} <= 1
 R057: R{2,2} <= 1
 R058: R{2,3} <= 1
 R059: R{2,4} <= 1
 R060: R{2,5} <= 1
 R061: R{2,6} <= 1
 R062: R{2,7} <= 1
 R063: R{2,8} <= 1
 R064: R{2,9} <= 1
 R065: R{2,10} <= 1
 R066: R{2,11} <= 1
 R067: R{2,12} <= 1
 R068: R{2,13} <= 1
 R069: R{2,14} <= 1
 R070: R{2,15} <= 1
 R071: R{2,16} <= 1
 R072: R{2,17} <= 1
 R073: R{2,18} <= 1
 R074: R{2,19} <= 1
 R075: R{3,0} <= 1
 R076: R{3,1} <= 1
 R077: R{3,2} <= 1
 R078: R{3,3} <= 1
 R079: R{3,4} <= 1
 R080: R{3,5} <= 1
 R081: R{3,6} <= 1
 R082: R{3,7} <= 1
 R083: R{3,8} <= 1
 R084: R{3,9} <= 1
 R085: R{3,10} <= 1
 R086: R{3,11} <= 1
 R087: R{3,12} <= 1
 R088: R{3,13} <= 1
 R089: R{3,14} <= 1
 R090: R{3,15} <= 1
 R091: R{3,16} <= 1
 R092: R{3,17} <= 1
 R093: R{4,0} <= 1
 R094: R{4,1} <= 1
 R095: R{4,2} <= 1
 R096: R{4,3} <= 1
 R097: R{4,4} <= 1
 R098: R{4,5} <= 1
 R099: R{4,6} <= 1
 R0100: R{4,7} <= 1
 R0101: R{4,8} <= 1
 R0102: R{4,9} <= 1
 R0103: R{4,10} <= 1
 R0104: R{4,11} <= 1
 R0105: R{4,12} <= 1
 R0106: R{4,13} <= 1
 R0107: R{4,14} <= 1
 R0108: R{4,15} <= 1
 R0109: R{4,16} <= 1
 R0110: R{4,17} <= 1
 R0111: R{4,18} <= 1
 R0112: R{4,19} <= 1
 R0113: R{4,20} <= 1
 R0114: R{4,21} <= 1
 R0115: R{4,22} <= 1
 R0116: R{4,23} <= 1
 R0117: R{4,24} <= 1
 R0118: R{5,0} <= 1
 R0119: R{5,1} <= 1
 R0120: R{5,2} <= 1
 R0121: R{5,3} <= 1
 R0122: R{5,4} <= 1
 R0123: R{5,5} <= 1
 R0124: R{5,6} <= 1
 R0125: R{5,7} <= 1
 R0126: R{5,8} <= 1
 R0127: R{5,9} <= 1
 R0128: R{5,10} <= 1
 R0129: R{5,11} <= 1
 R0130: R{5,12} <= 1
 R0131: R{5,13} <= 1
 R0132: R{5,14} <= 1
 R0133: R{5,15} <= 1
 R0134: R{5,16} <= 1
 R0135: R{5,17} <= 1
 R0136: R{5,18} <= 1
 R0137: R{5,19} <= 1
 R0138: R{5,20} <= 1
 R0139: R{5,21} <= 1
 R0140: R{5,22} <= 1
 R0141: R{5,23} <= 1
 R0142: R{5,24} <= 1
 R0143: R{5,25} <= 1
 R0144: R{5,26} <= 1
 R0145: R{6,0} <= 1
 R0146: R{6,1} <= 1
 R0147: R{6,2} <= 1
 R0148: R{6,3} <= 1
 R0149: R{6,4} <= 1
 R0150: R{6,5} <= 1
 R0151: R{6,6} <= 1
 R0152: R{6,7} <= 1
 R0153: R{6,8} <= 1
 R0154: R{6,9} <= 1
 R0155: R{6,10} <= 1
 R0156: R{6,11} <= 1
 R0157: R{6,12} <= 1
 R0158: R{6,13} <= 1
 R0159: R{6,14} <= 1
 R0160: R{6,15} <= 1
 R0161: R{6,16} <= 1
 R0162: R{6,17} <= 1
 R0163: R{6,18} <= 1
 R0164: R{6,19} <= 1
 R0165: R{6,20} <= 1
 R0166: R{6,21} <= 1
 R0167: R{6,22} <= 1
 R0168: R{6,23} <= 1
 R0169: R{6,24} <= 1
 R0170: R{6,25} <= 1
 R0171: R{6,26} <= 1
 R0172: R{6,27} <= 1
 R0173: R{6,28} <= 1
 R1_0: R{0,0} + R{0,1} + R{0,2} + R{0,3} + R{0,4} + R{0,5} + R{0,6}
   + R{0,7} + R{0,8} + R{0,9} + R{0,10} + R{0,11} + R{0,12} + R{0,13}
   + R{0,14} + R{0,15} + R{0,16} + R{0,17} + R{0,18} + R{0,19} + R{0,20}
   + R{0,21} + R{0,22} + R{0,23} + R{0,24} + R{0,25} + R{0,26} + R{0,27}
   + R{0,28} + R{0,29} + R{0,30} + R{0,31} <= 1
 R1_1: R{1,0} + R{1,1} + R{1,2} + R{1,3} + R{1,4} + R{1,5} + R{1,6}
   + R{1,7} + R{1,8} + R{1,9} + R{1,10} + R{1,11} + R{1,12} + R{1,13}
   + R{1,14} + R{1,15} + R{1,16} + R{1,17} + R{1,18} + R{1,19} + R{1,20}
   + R{1,21} + R{1,22} <= 1
 R1_2: R{2,0} + R{2,1} + R{2,2} + R{2,3} + R{2,4} + R{2,5} + R{2,6}
   + R{2,7} + R{2,8} + R{2,9} + R{2,10} + R{2,11} + R{2,12} + R{2,13}
   + R{2,14} + R{2,15} + R{2,16} + R{2,17} + R{2,18} + R{2,19} <= 1
 R1_3: R{3,0} + R{3,1} + R{3,2} + R{3,3} + R{3,4} + R{3,5} + R{3,6}
   + R{3,7} + R{3,8} + R{3,9} + R{3,10} + R{3,11} + R{3,12} + R{3,13}
   + R{3,14} + R{3,15} + R{3,16} + R{3,17} <= 1
 R1_4: R{4,0} + R{4,1} + R{4,2} + R{4,3} + R{4,4} + R{4,5} + R{4,6}
   + R{4,7} + R{4,8} + R{4,9} + R{4,10} + R{4,11} + R{4,12} + R{4,13}
   + R{4,14} + R{4,15} + R{4,16} + R{4,17} + R{4,18} + R{4,19} + R{4,20}
   + R{4,21} + R{4,22} + R{4,23} + R{4,24} <= 1
 R1_5: R{5,0} + R{5,1} + R{5,2} + R{5,3} + R{5,4} + R{5,5} + R{5,6}
   + R{5,7} + R{5,8} + R{5,9} + R{5,10} + R{5,11} + R{5,12} + R{5,13}
   + R{5,14} + R{5,15} + R{5,16} + R{5,17} + R{5,18} + R{5,19} + R{5,20}
   + R{5,21} + R{5,22} + R{5,23} + R{5,24} + R{5,25} + R{5,26} <= 1
 R1_6: R{6,0} + R{6,1} + R{6,2} + R{6,3} + R{6,4} + R{6,5} + R{6,6}
   + R{6,7} + R{6,8} + R{6,9} + R{6,10} + R{6,11} + R{6,12} + R{6,13}
   + R{6,14} + R{6,15} + R{6,16} + R{6,17} + R{6,18} + R{6,19} + R{6,20}
   + R{6,21} + R{6,22} + R{6,23} + R{6,24} + R{6,25} + R{6,26} + R{6,27}
   + R{6,28} <= 1
 R2_0: 7 R{0,0} + 7 R{0,1} + 7 R{0,2} + 7 R{0,6} + 7 R{0,7} + 7 R{0,8}
   + 7 R{0,9} + 7 R{0,10} + 7 R{0,11} + 7 R{0,12} + 7 R{0,13} + 7 R{0,14}
   + 7 R{0,15} + 7 R{0,17} + 7 R{0,18} + 7 R{0,19} + 7 R{0,20} + 7 R{0,21}
   + 7 R{0,22} + 7 R{0,23} + 7 R{0,24} + 7 R{0,25} + 7 R{0,26} + 7 R{0,27}
   + 7 R{0,28} + 7 R{0,29} + 7 R{0,30} + 7 R{0,31} <= 7
 R2_1: 10 R{0,22} + 10 R{0,23} + 10 R{0,28} + 10 R{1,9} + 10 R{1,20}
   + 10 R{1,22} + 10 R{2,1} + 10 R{2,2} + 10 R{2,3} + 10 R{2,4} + 10 R{2,5}
   + 10 R{2,7} + 10 R{2,8} + 10 R{2,9} + 10 R{2,10} + 10 R{2,11}
   + 10 R{2,13} + 10 R{2,15} + 10 R{2,16} + 10 R{2,17} + 10 R{3,10}
   + 10 R{3,13} + 10 R{3,16} + 10 R{5,21} + 10 R{6,4} + 10 R{6,8}
   + 10 R{6,13} + 10 R{6,16} + 10 R{6,18} + 10 R{6,19} + 10 R{6,24}
   + 10 R{6,25} <= 10
 R2_2: <= 0
 R2_3: 4 R{1,4} + 4 R{1,5} + 4 R{1,6} + 4 R{2,1} + 4 R{2,2} + 4 R{2,3}
   + 4 R{2,12} + 4 R{2,14} + 4 R{2,16} <= 4
 R2_4: <= 0
 R2_5: 5 R{0,4} + 5 R{0,5} + 3 R{5,2} + 3 R{5,3} + 5 R{5,4} + 5 R{5,5}
   + 5 R{5,6} + 5 R{5,8} + 5 R{5,9} + 5 R{5,13} + 5 R{5,14} <= 5
 R2_6: 10 R{1,1} + 10 R{1,2} + 10 R{1,3} + 10 R{1,4} + 10 R{1,5}
   + 10 R{1,7} + 10 R{1,8} + 10 R{1,12} + 10 R{1,16} + 10 R{1,18}
   + 10 R{2,4} + 10 R{2,8} + 10 R{5,4} + 10 R{5,5} + 10 R{5,6} + 10 R{5,8}
   + 10 R{5,9} + 10 R{5,10} + 10 R{5,13} + 10 R{5,14} + 10 R{5,15}
   + 10 R{5,18} + 10 R{5,22} <= 10
 R2_7: 6 R{1,1} + 6 R{1,2} + 6 R{1,3} + 6 R{1,4} + 6 R{1,5} + 6 R{1,6}
   + 6 R{1,10} + 6 R{1,15} + 6 R{1,16} + 6 R{1,20} + 6 R{1,22} <= 6
 R2_8: <= 0
 R2_9: 12 R{4,1} + 12 R{4,2} + 12 R{4,3} + 12 R{4,4} + 12 R{4,5}
   + 12 R{4,6} + 12 R{4,7} + 12 R{4,10} + 12 R{4,11} + 12 R{4,12}
   + 12 R{4,13} + 12 R{4,14} + 12 R{4,15} + 12 R{4,16} + 12 R{4,17}
   + 12 R{4,18} + 12 R{4,19} + 12 R{4,20} + 12 R{4,21} + 12 R{4,23} <= 12
 R2_10: 8 R{6,1} + 8 R{6,2} + 8 R{6,5} + 8 R{6,6} + 8 R{6,19} <= 8
 R2_11: <= 0
 R2_12: <= 0
 R2_13: <= 0
 R2_14: <= 0
 R2_15: 11 R{0,0} + 11 R{0,1} + 11 R{0,2} + 11 R{0,6} + 11 R{0,7}
   + 11 R{0,8} + 11 R{0,11} + 11 R{0,12} + 11 R{0,15} + 11 R{0,17}
   + 11 R{0,18} + 11 R{0,19} + 11 R{0,21} + 11 R{0,23} + 11 R{0,29}
   + 11 R{0,30} + 11 R{4,1} + 11 R{4,2} + 11 R{4,3} + 11 R{4,17} <= 11
 R2_16: <= 0
 R2_17: 11 R{0,24} + 11 R{6,5} + 11 R{6,19} + 11 R{6,21} <= 11
 R2_18: 5 R{0,17} + 5 R{0,20} <= 5
 R2_19: 11 R{2,6} + 11 R{2,7} + 11 R{3,2} + 11 R{3,3} + 11 R{3,6}
   + 11 R{3,7} + 11 R{3,9} + 11 R{4,1} + 11 R{4,2} + 11 R{4,17}
   + 11 R{4,21} + 11 R{5,16} <= 11
 R2_20: 13 R{0,6} + 13 R{0,7} + 13 R{0,29} + 13 R{1,6} + 13 R{2,18}
   + 13 R{5,7} + 13 R{5,24} + 13 R{5,25} + 13 R{6,1} + 13 R{6,2}
   + 13 R{6,3} + 13 R{6,5} + 13 R{6,6} + 13 R{6,8} + 13 R{6,13}
   + 13 R{6,19} <= 13
 R2_21: <= 0
 R2_22: 10 R{4,8} + 10 R{4,9} + 10 R{5,21} <= 10
 R2_23: 14 R{0,27} + 14 R{0,31} + 14 R{4,4} + 14 R{4,5} + 14 R{4,6}
   + 14 R{4,10} + 14 R{4,11} + 14 R{4,12} + 14 R{4,13} + 14 R{4,14}
   + 14 R{4,16} + 14 R{4,18} + 14 R{4,19} + 14 R{4,20} + 14 R{4,23}
   + 14 R{6,3} + 14 R{6,5} + 14 R{6,6} + 14 R{6,7} + 14 R{6,11}
   + 14 R{6,15} + 14 R{6,17} + 14 R{6,19} + 14 R{6,21} + 14 R{6,23}
   + 14 R{6,27} <= 14
 R2_24: 10 R{0,6} + 10 R{0,9} + 10 R{0,23} + 10 R{0,29} + 10 R{3,1}
   + 10 R{3,2} + 10 R{3,4} + 10 R{3,6} + 10 R{3,7} + 10 R{3,8} + 10 R{3,11}
   + 10 R{3,13} + 10 R{3,15} + 10 R{5,14} + 8 R{5,17} <= 10
 R2_25: 13 R{0,0} + 13 R{0,1} + 13 R{0,2} + 13 R{0,6} + 13 R{0,7}
   + 13 R{0,8} + 13 R{0,9} + 13 R{0,10} + 13 R{0,11} + 13 R{0,12}
   + 13 R{0,13} + 13 R{0,14} + 13 R{0,15} + 13 R{0,16} + 13 R{0,17}
   + 13 R{0,18} + 13 R{0,19} + 13 R{0,20} + 13 R{0,21} + 13 R{0,22}
   + 13 R{0,23} + 13 R{0,24} + 13 R{0,25} + 13 R{0,26} + 13 R{0,27}
   + 13 R{0,28} + 13 R{0,29} + 13 R{0,30} + 13 R{0,31} + 13 R{4,1}
   + 13 R{4,2} + 13 R{4,3} + 13 R{4,4} + 13 R{4,7} + 13 R{4,10}
   + 13 R{4,11} + 13 R{4,12} + 13 R{4,13} + 13 R{4,14} + 13 R{4,17}
   + 13 R{4,18} + 13 R{4,19} + 13 R{4,20} + 13 R{4,21} <= 13
 R2_26: 6 R{0,8} + 6 R{0,12} + 6 R{0,19} + 6 R{5,1} + 6 R{5,2} + 6 R{5,3}
   + 6 R{5,4} + 6 R{5,5} + 6 R{5,6} + 6 R{5,7} + 6 R{5,8} + 6 R{5,10}
   + 6 R{5,11} + 6 R{5,12} + 6 R{5,13} + 6 R{5,14} + 6 R{5,15} + 6 R{5,16}
   + 6 R{5,17} + 6 R{5,18} + 6 R{5,19} + 6 R{5,20} + 6 R{5,22} + 6 R{5,23}
   + 6 R{5,25} + 6 R{5,26} <= 6
 R2_27: 5 R{0,9} + 5 R{0,19} + 5 R{1,5} + 5 R{1,12} + 5 R{1,17} + 5 R{2,2}
   + 5 R{2,3} + 5 R{2,12} + 5 R{2,14} + 5 R{3,12} + 5 R{4,13} + 5 R{4,15}
   + 5 R{5,2} + 5 R{5,3} + 5 R{5,4} + 5 R{5,9} + 5 R{5,10} + 5 R{5,12}
   + 5 R{5,13} + 5 R{5,17} + 5 R{5,18} + 5 R{5,19} + 5 R{5,26} + 5 R{6,1}
   + 5 R{6,2} + 5 R{6,3} + 5 R{6,4} + 5 R{6,5} + 5 R{6,6} + 5 R{6,7}
   + 5 R{6,8} + 5 R{6,9} + 5 R{6,10} + 5 R{6,11} + 5 R{6,12} + 5 R{6,13}
   + 5 R{6,14} + 5 R{6,15} + 5 R{6,16} + 5 R{6,17} + 5 R{6,18} + 5 R{6,19}
   + 5 R{6,20} + 5 R{6,22} + 5 R{6,23} + 5 R{6,24} + 5 R{6,26} + 5 R{6,27}
   + 5 R{6,28} <= 5
 R2_28: <= 0
 R2_29: <= 0
 R2_30: <= 0
 R2_31: <= 0
 R2_32: 7 R{5,1} + 7 R{5,2} + 7 R{5,3} + 7 R{5,4} + 7 R{5,5} + 7 R{5,10}
   + 7 R{5,11} + 7 R{5,12} + 7 R{5,13} + 7 R{5,15} + 7 R{5,16} + 7 R{5,17}
   + 7 R{5,18} + 7 R{5,19} + 7 R{5,20} + 7 R{5,23} + 7 R{5,24} + 7 R{5,25}
   + 7 R{5,26} <= 7
 R2_33: 12 R{1,3} + 12 R{1,14} + 12 R{1,15} + 12 R{5,15} + 12 R{5,25}
   + 12 R{6,17} <= 12
 R2_34: 5 R{0,0} + 5 R{0,1} + 5 R{0,2} + 5 R{0,6} + 5 R{0,7} + 5 R{0,8}
   + 5 R{0,9} + 5 R{0,11} + 5 R{0,13} + 5 R{0,14} + 5 R{0,15} + 5 R{0,16}
   + 5 R{0,17} + 5 R{0,18} + 5 R{0,19} + 5 R{0,21} + 5 R{0,22} + 5 R{0,23}
   + 5 R{0,24} + 5 R{0,25} + 5 R{0,26} + 5 R{0,27} + 5 R{0,28} + 5 R{0,29}
   + 5 R{1,7} + 5 R{1,21} + 5 R{5,8} <= 5
 R2_35: <= 0
 R2_36: 15 R{5,1} + 15 R{5,2} + 15 R{5,3} + 15 R{5,4} + 15 R{5,17}
   + 15 R{5,26} <= 16
 R2_37: 5 R{3,1} + 5 R{3,2} + 5 R{3,3} + 5 R{3,4} + 5 R{3,5} + 5 R{3,7}
   + 5 R{3,8} + 5 R{3,9} + 5 R{3,10} + 5 R{3,12} + 5 R{3,15} + 5 R{5,11}
   + 5 R{5,19} + 5 R{5,20} + 5 R{5,23} <= 5
 R2_38: <= 0
 R2_39: 15 R{0,0} + 15 R{0,1} + 15 R{0,2} + 15 R{0,6} + 15 R{0,8}
   + 15 R{0,9} + 15 R{0,11} + 15 R{0,12} + 15 R{0,15} + 15 R{0,17}
   + 15 R{0,18} + 15 R{0,19} + 15 R{0,20} + 15 R{0,21} + 15 R{0,22}
   + 15 R{0,23} + 15 R{0,26} + 15 R{0,28} + 15 R{0,29} + 15 R{0,30} <= 17
 R2_40: 15 R{2,1} + 15 R{2,2} + 15 R{2,3} + 15 R{2,6} + 15 R{2,7}
   + 15 R{2,8} + 15 R{2,12} + 15 R{2,13} + 15 R{2,14} + 15 R{2,15}
   + 15 R{2,18} + 15 R{5,21} <= 15
 R2_41: 5 R{0,0} + 5 R{0,1} + 5 R{0,2} + 5 R{0,7} + 5 R{0,10} + 5 R{0,12}
   + 5 R{0,13} + 5 R{0,17} + 5 R{0,21} + 5 R{0,25} + 5 R{0,26} + 5 R{0,27}
   + 5 R{0,28} + 5 R{0,31} + 5 R{1,4} + 5 R{1,6} + 5 R{1,8} + 5 R{1,10}
   + 5 R{1,17} + 5 R{1,18} + 5 R{1,21} + 5 R{1,22} + 5 R{3,3} + 5 R{3,4}
   + 5 R{3,11} + 5 R{3,14} + 5 R{4,5} + 5 R{4,15} + 5 R{4,24} + 5 R{5,4}
   + 5 R{5,5} + 5 R{5,6} + 5 R{5,7} + 5 R{5,11} + 5 R{5,19} + 5 R{5,22}
   + 5 R{6,20} + 5 R{6,22} + 5 R{6,23} + 5 R{6,24} + 5 R{6,25} + 5 R{6,26}
   + 5 R{6,28} <= 5
 R2_42: 4 R{2,1} + 4 R{2,2} + 4 R{2,3} + 4 R{2,8} + 4 R{2,12} + 4 R{2,14}
   <= 4
 R2_43: <= 0
 R2_44: <= 0
 R2_45: <= 0
 R2_46: 9 R{0,7} + 9 R{0,10} + 9 R{0,13} + 9 R{0,14} + 9 R{0,24} + 9 R{6,5}
   + 9 R{6,19} + 9 R{6,21} <= 9
 R2_47: 7 R{0,0} + 7 R{0,1} + 7 R{0,2} + 7 R{0,8} + 7 R{0,12} + 7 R{0,13}
   + 7 R{0,17} + 7 R{0,18} + 7 R{0,19} + 7 R{0,21} + 7 R{0,22} + 7 R{5,1}
   + 7 R{5,2} + 7 R{5,3} + 7 R{5,4} + 7 R{5,12} + 7 R{5,17} + 7 R{5,26}
   <= 7
 R2_48: 4 R{0,10} + 4 R{4,1} + 4 R{4,2} + 4 R{4,3} + 4 R{4,4} + 4 R{4,5}
   + 4 R{4,6} + 4 R{4,7} + 4 R{4,10} + 4 R{4,11} + 4 R{4,12} + 4 R{4,16}
   + 4 R{4,17} + 4 R{4,18} + 4 R{4,20} + 4 R{4,21} <= 4
 R2_49: <= 0
 R2_50: <= 0
 R2_51: 11 R{1,8} + 11 R{1,17} + 11 R{3,9} + 11 R{3,15} + 11 R{5,11}
   + 11 R{5,25} <= 11
 R2_52: 10 R{4,8} + 10 R{4,9} + 10 R{4,22} + 10 R{4,24} <= 10
 R2_53: 13 R{4,1} + 13 R{4,2} + 13 R{4,3} + 13 R{4,4} + 13 R{4,5}
   + 13 R{4,6} + 13 R{4,10} + 13 R{4,13} + 13 R{4,14} + 13 R{4,17}
   + 13 R{4,18} + 13 R{4,19} + 13 R{4,21} <= 13
 R2_54: 9 R{3,1} + 9 R{3,2} + 9 R{3,3} + 9 R{3,4} + 9 R{3,5} + 9 R{3,6}
   + 9 R{3,7} + 9 R{3,8} + 9 R{3,11} + 9 R{3,13} + 9 R{3,15} <= 9
 R2_55: 8 R{1,10} + 8 R{6,1} + 8 R{6,2} + 8 R{6,3} + 8 R{6,4} + 8 R{6,6}
   + 8 R{6,7} + 8 R{6,8} + 8 R{6,9} + 8 R{6,10} + 8 R{6,11} + 8 R{6,12}
   + 8 R{6,13} + 8 R{6,14} + 8 R{6,15} + 8 R{6,16} + 8 R{6,18} + 8 R{6,20}
   + 8 R{6,23} + 8 R{6,24} + 8 R{6,25} + 8 R{6,26} + 8 R{6,27} + 8 R{6,28}
   <= 8
 R2_56: 6 R{0,1} + 6 R{0,2} + 6 R{0,6} + 6 R{0,7} + 6 R{0,8} + 6 R{0,10}
   + 6 R{0,12} + 6 R{0,20} + 6 R{0,22} + 6 R{0,23} + 6 R{1,7} + 6 R{4,7}
   + 6 R{4,9} + 6 R{4,12} + 6 R{4,16} + 6 R{5,5} + 6 R{5,6} + 6 R{5,8}
   + 6 R{5,11} + 6 R{5,15} + 6 R{5,22} + 6 R{6,4} + 6 R{6,9} + 6 R{6,11}
   + 6 R{6,16} + 6 R{6,18} + 6 R{6,27} <= 6
 R2_57: <= 0
 R2_58: <= 0
 R2_59: 10 R{0,30} + 10 R{4,8} + 10 R{4,9} + 10 R{4,11} + 10 R{4,20}
   + 10 R{4,22} + 10 R{4,23} + 10 R{5,21} + 10 R{6,14} <= 10
 R2_60: <= 0
 R2_61: 9 R{0,16} + 9 R{4,8} + 9 R{6,21} <= 9
 R2_62: <= 0
 R2_63: <= 0
 R2_64: <= 0
 R2_65: 5 R{0,18} + 5 R{0,29} + 5 R{4,22} + 5 R{4,24} + 5 R{6,1} + 5 R{6,2}
   + 5 R{6,3} + 5 R{6,4} + 5 R{6,5} + 5 R{6,6} + 5 R{6,7} + 5 R{6,8}
   + 5 R{6,9} + 5 R{6,10} + 5 R{6,12} + 5 R{6,13} + 5 R{6,15} + 5 R{6,17}
   + 5 R{6,18} + 5 R{6,19} + 5 R{6,20} + 5 R{6,21} + 5 R{6,22} + 5 R{6,23}
   + 5 R{6,24} + 5 R{6,26} + 5 R{6,28} <= 5
 R2_66: 7 R{3,6} + 7 R{6,1} + 7 R{6,2} + 7 R{6,3} + 7 R{6,4} + 7 R{6,6}
   + 7 R{6,7} + 7 R{6,9} + 7 R{6,10} + 7 R{6,11} + 7 R{6,12} + 7 R{6,14}
   + 7 R{6,15} + 7 R{6,17} + 7 R{6,20} + 7 R{6,22} + 7 R{6,23} + 7 R{6,26}
   + 7 R{6,28} <= 7
 R2_67: 3 R{0,9} + 3 R{0,21} + 3 R{0,26} + 3 R{0,27} + 3 R{0,31} + 3 R{4,8}
   + 3 R{4,9} + 3 R{4,22} + 3 R{4,24} + 3 R{6,10} + 3 R{6,12} + 3 R{6,15}
   + 3 R{6,17} + 3 R{6,20} + 3 R{6,22} + 3 R{6,23} + 3 R{6,26} <= 3
 R2_68: 6 R{2,11} + 6 R{2,13} + 6 R{2,15} + 6 R{4,1} + 6 R{5,21} + 6 R{6,2}
   + 6 R{6,3} + 6 R{6,7} + 6 R{6,9} + 6 R{6,10} + 6 R{6,11} + 6 R{6,12}
   + 6 R{6,14} + 6 R{6,22} + 6 R{6,27} + 6 R{6,28} <= 6
 R2_69: 7 R{0,0} + 7 R{0,1} + 7 R{0,2} + 7 R{0,7} + 7 R{0,8} + 7 R{0,11}
   + 7 R{0,12} + 7 R{0,13} + 7 R{0,14} + 7 R{0,15} + 7 R{0,16} + 7 R{0,18}
   + 7 R{0,21} + 7 R{0,22} + 7 R{0,25} + 7 R{0,26} + 7 R{0,28} + 7 R{0,31}
   + 7 R{1,16} + 7 R{2,14} + 7 R{4,1} + 7 R{4,2} + 7 R{4,3} + 7 R{4,4}
   + 7 R{4,5} + 7 R{4,8} + 7 R{4,10} + 7 R{4,11} + 7 R{4,14} + 7 R{4,17}
   + 7 R{4,19} + 7 R{4,21} + 7 R{5,5} + 7 R{5,6} + 7 R{5,7} + 7 R{5,15}
   + 7 R{5,21} + 7 R{5,22} + 7 R{6,25} <= 7
 R2_70: 11 R{1,1} + 11 R{1,2} + 11 R{1,4} + 11 R{1,5} + 11 R{1,6}
   + 11 R{1,12} + 11 R{1,20} + 11 R{1,22} <= 11
 R2_71: 7 R{0,10} + 7 R{1,7} + 7 R{1,8} + 7 R{1,18} + 7 R{3,1} + 7 R{3,2}
   + 7 R{3,3} + 7 R{3,4} + 7 R{3,5} + 7 R{3,6} + 7 R{3,10} + 7 R{3,14}
   + 7 R{5,8} + 7 R{5,9} + 7 R{5,11} <= 7
 R2_72: <= 0
 R2_73: 11 R{0,0} + 11 R{0,1} + 11 R{0,2} + 11 R{0,6} + 11 R{0,7}
   + 11 R{0,8} + 11 R{0,10} + 11 R{0,11} + 11 R{0,12} + 11 R{0,13}
   + 11 R{0,14} + 11 R{0,15} + 11 R{0,16} + 11 R{0,17} + 11 R{0,18}
   + 11 R{0,19} + 11 R{0,20} + 11 R{0,22} + 11 R{0,23} + 11 R{0,24}
   + 11 R{0,25} + 11 R{0,28} + 11 R{0,29} + 11 R{0,30} <= 11
 R2_74: 5 R{5,1} + 5 R{5,2} + 5 R{5,3} + 5 R{5,4} + 5 R{5,5} + 5 R{5,6}
   + 5 R{5,7} + 5 R{5,8} + 5 R{5,9} + 5 R{5,10} + 5 R{5,12} + 5 R{5,13}
   + 5 R{5,14} + 5 R{5,15} + 5 R{5,20} + 5 R{5,22} + 5 R{5,24} + 5 R{5,25}
   + 5 R{5,26} <= 5
 R2_75: 8 R{6,1} + 8 R{6,2} + 8 R{6,3} + 8 R{6,4} + 8 R{6,5} + 8 R{6,7}
   + 8 R{6,8} + 8 R{6,9} + 8 R{6,10} + 8 R{6,11} + 8 R{6,12} + 8 R{6,13}
   + 8 R{6,19} + 8 R{6,21} <= 8
 R2_76: 12 R{0,4} + 12 R{0,5} + 12 R{3,5} + 12 R{5,5} + 12 R{5,6}
   + 12 R{5,7} + 12 R{5,8} + 12 R{5,9} + 12 R{5,10} + 12 R{5,11}
   + 12 R{5,12} + 12 R{5,13} + 12 R{5,14} + 12 R{5,15} + 12 R{5,16}
   + 12 R{5,18} + 12 R{5,19} + 12 R{5,20} + 12 R{5,22} + 12 R{5,23}
   + 12 R{5,24} + 12 R{5,25} + 12 R{6,4} + 12 R{6,8} + 12 R{6,13}
   + 12 R{6,16} + 12 R{6,18} <= 12
 R2_77: 7 R{0,1} + 7 R{0,2} + 7 R{0,5} + 7 R{0,6} + 7 R{0,8} + 7 R{0,11}
   + 7 R{0,14} + 7 R{0,16} + 7 R{0,19} + 7 R{0,25} + 7 R{0,26} + 7 R{0,28}
   + 7 R{0,31} + 7 R{1,2} + 7 R{1,3} + 7 R{1,4} + 7 R{1,5} + 7 R{1,7}
   + 7 R{1,9} + 7 R{1,11} + 7 R{1,12} + 7 R{1,13} + 7 R{1,14} + 7 R{1,18}
   + 7 R{1,19} + 7 R{1,20} + 7 R{1,22} + 7 R{2,2} + 7 R{2,3} + 7 R{2,6}
   + 7 R{2,9} + 7 R{2,12} + 7 R{2,16} + 7 R{2,17} + 7 R{2,19} + 7 R{3,8}
   + 7 R{3,11} + 7 R{3,14} + 7 R{3,16} + 7 R{3,17} + 7 R{4,2} + 7 R{4,4}
   + 7 R{4,10} + 7 R{4,13} + 7 R{4,14} + 7 R{4,15} + 7 R{4,17} + 7 R{4,19}
   + 7 R{4,21} + 7 R{5,2} + 7 R{5,3} + 7 R{5,17} + 7 R{5,18} + 7 R{5,26}
   + 7 R{6,2} + 7 R{6,3} + 7 R{6,5} + 7 R{6,7} + 7 R{6,9} + 7 R{6,10}
   + 7 R{6,12} + 7 R{6,14} + 7 R{6,18} + 7 R{6,20} + 7 R{6,24} + 7 R{6,25}
   + 7 R{6,26} + 7 R{6,27} + 7 R{6,28} <= 7
Bounds
End
